qe/outputs/qe/cbrdelay_obs_newl/T=6,eliminate=[I_0,I_1,I_2,I_3,I_4,I_5,L_2,L_3,L_4,L_5,C,lhs=B].smt2
; benchmark generated from python API
(set-info :status unknown)
(declare-fun S_1 () Real)
(declare-fun B () Real)
(declare-fun S_5 () Real)
(declare-fun L_0 () Real)
(declare-fun A_0 () Real)
(declare-fun S_2 () Real)
(declare-fun S_3 () Real)
(declare-fun A_1 () Real)
(declare-fun L_1 () Real)
(declare-fun S_0 () Real)
(declare-fun S_4 () Real)
(declare-fun A_2 () Real)
(declare-fun A_3 () Real)
(declare-fun A_4 () Real)
(declare-fun A_5 () Real)
(assert
 (let (($x21576 (<= (+ (* (/ 1.0 3.0) L_1) (* (- (/ 1.0 3.0)) A_1) (* (- (/ 2.0 3.0)) S_5) S_3) 0.0)))
 (let (($x555 (not (>= (+ (* 3.0 S_5) (* (- 2.0) B) (* (- 3.0) S_4)) 0.0))))
 (let (($x10582 (<= (+ (* (- 1.0) S_5) (* (- 1.0) A_0) (* 2.0 S_2) L_0) 0.0)))
 (let (($x20125 (<= (+ (* (- (/ 1.0 3.0)) S_5) (* (- 1.0) A_0) (* (/ 4.0 3.0) S_1) L_0) 0.0)))
 (let (($x21547 (<= (+ (* (/ 2.0 3.0) L_1) (* (- (/ 2.0 3.0)) A_1) (* (- (/ 1.0 3.0)) S_5) S_2) 0.0)))
 (let (($x39 (>= L_0 0.0)))
 (let ((?x1312 (* (- 1.0) S_0)))
 (let ((?x1978 (* (- 3.0) S_4)))
 (let ((?x2294 (* (- 4.0) B)))
 (let ((?x10857 (* 4.0 S_5)))
 (let ((?x411 (* (- 1.0) S_1)))
 (let ((?x1921 (* (- 2.0) S_4)))
 (let ((?x2284 (* (- 3.0) B)))
 (let ((?x4978 (* 3.0 S_5)))
 (let ((?x417 (* (- 1.0) S_2)))
 (let ((?x431 (* (- 1.0) S_4)))
 (let ((?x2216 (* (- 2.0) B)))
 (let ((?x10774 (* 2.0 S_5)))
 (let (($x36027 (<= 0.0 (+ L_1 (* (- 1.0) A_1) S_2))))
 (let (($x10792 (<= (+ (* (- 3.0) L_1) (* 3.0 A_1) S_5 (* (- 4.0) S_3)) 0.0)))
 (let (($x53051 (or (<= (+ (* (/ 2.0 5.0) S_5) (* (- 1.0) S_3) (* (/ 3.0 5.0) S_0)) 0.0) $x10792)))
 (let (($x40639 (<= 0.0 (+ L_1 (* (- 1.0) A_1) (* (/ 1.0 4.0) S_4) (* (/ 3.0 4.0) S_0)))))
 (let (($x10188 (<= (+ (* (- 2.0) L_1) (* 2.0 A_1) S_4 (* (- 3.0) S_3)) 0.0)))
 (let (($x41595 (or (<= (+ (* (/ 1.0 2.0) S_4) (* (- 1.0) S_3) (* (/ 1.0 2.0) S_0)) 0.0) $x40639)))
 (let (($x40850 (or (<= (+ (* (- (/ 1.0 4.0)) S_5) (* (/ 1.0 4.0) S_0)) (- 5.0)) (<= (+ (* (- (/ 1.0 3.0)) L_1) (* (/ 1.0 3.0) A_1) (* (- (/ 1.0 3.0)) S_5)) (- 5.0)))))
 (let (($x54411 (or (<= (+ (* (/ 3.0 5.0) S_5) ?x431 (* (/ 2.0 5.0) S_0)) 0.0) (<= (+ (* (- 1.0) L_1) A_1 S_5 ?x1921) 0.0))))
 (let (($x41148 (or (<= (+ (* (- (/ 1.0 2.0)) S_3) (* (/ 1.0 2.0) S_0)) (- 5.0)) (<= (+ (* (- 1.0) L_1) A_1 (* (- 1.0) S_3)) (- 5.0)))))
 (let ((?x2920 (* (- (/ 1.0 2.0)) S_4)))
 (let ((?x277 (* (- 1.0) B)))
 (let ((?x2923 (* (- (/ 1.0 2.0)) A_1)))
 (let ((?x2926 (* (/ 1.0 2.0) L_1)))
 (let (($x18409 (not (<= B 10.0))))
 (let (($x40470 (<= 0.0 (+ L_1 (* (- 1.0) A_1) (* (/ 1.0 3.0) S_4) (* (/ 2.0 3.0) S_0)))))
 (let (($x53729 (or (not $x40470) (<= (+ (* (- (/ 1.0 2.0)) L_1) (* (/ 1.0 2.0) A_1) ?x2920) (- 5.0)))))
 (let (($x8606 (<= (+ (* (- 3.0) S_5) (* (- 1.0) A_0) (* 4.0 S_3) L_0) 0.0)))
 (let (($x4141 (<= (+ (* (- 1.0) A_0) (* (- 1.0) S_3) (* 2.0 S_1) L_0) 0.0)))
 (let (($x17587 (<= (+ (* (- (/ 3.0 2.0)) L_1) (* (/ 3.0 2.0) A_1) (* (- 1.0) A_0) ?x2920 L_0) 0.0)))
 (let ((?x3601 (+ (* 5.0 L_1) (* (- 5.0) A_1) S_5 (* 4.0 S_0) (* 5.0 B))))
 (let (($x56 (= L_1 L_0)))
 (let (($x3576 (<= (+ (* 2.0 L_1) (* (- 2.0) A_1) S_2 S_0 (* 2.0 B)) 0.0)))
 (let ((?x1300 (* (- (/ 4.0 3.0)) B)))
 (let ((?x1284 (* (- (/ 1.0 3.0)) S_5)))
 (let ((?x1299 (* (/ 4.0 3.0) A_1)))
 (let ((?x1297 (* (- (/ 4.0 3.0)) L_1)))
 (let (($x2981 (<= (+ (* (- 2.0) L_1) (* 2.0 A_1) S_4 (* (- 3.0) S_3) ?x2216) 0.0)))
 (let ((?x3610 (* 4.0 B)))
 (let (($x3617 (<= (+ (* 4.0 L_1) (* (- 4.0) A_1) S_4 (* 3.0 S_0) ?x3610) 0.0)))
 (let ((?x1264 (* (- (/ 1.0 3.0)) B)))
 (let ((?x1263 (* (/ 2.0 3.0) S_5)))
 (let ((?x1283 (* (- (/ 2.0 3.0)) A_1)))
 (let ((?x1282 (* (/ 2.0 3.0) L_1)))
 (let (($x39570 (not (<= 0.0 (+ (* 2.0 L_1) (* (- 2.0) A_1) S_5 B S_0)))))
 (let (($x3256 (<= (+ (* (- 3.0) L_1) (* 3.0 A_1) S_5 (* (- 4.0) S_3) ?x2284) 0.0)))
 (let (($x3223 (<= (+ (* (- 2.0) L_1) (* 2.0 A_1) (* (- 1.0) S_3) ?x411 ?x2216) 0.0)))
 (let (($x3149 (<= (+ (* (- 3.0) L_1) (* 3.0 A_1) (* (- 2.0) S_3) ?x1312 ?x2284) 0.0)))
 (let ((?x1271 (* (/ 1.0 3.0) B)))
 (let ((?x1270 (* (- (/ 2.0 3.0)) S_5)))
 (let ((?x1268 (* (- (/ 1.0 3.0)) A_1)))
 (let ((?x1267 (* (/ 1.0 3.0) L_1)))
 (let ((?x2289 (* 3.0 B)))
 (let ((?x3297 (* 2.0 S_0)))
 (let (($x32672 (or $x56 (<= (+ (* 3.0 L_1) (* (- 3.0) A_1) S_3 ?x3297 ?x2289) 0.0))))
 (let (($x1315 (<= (+ (* (- (/ 5.0 3.0)) L_1) (* (/ 5.0 3.0) A_1) ?x1270 ?x1312 (* (- (/ 5.0 3.0)) B)) 0.0)))
 (let ((?x424 (* (- 1.0) S_3)))
 (let ((?x1339 (* (- 1.0) A_0)))
 (let ((?x2937 (* 2.0 A_1)))
 (let ((?x2259 (* (- 2.0) L_1)))
 (let ((?x2887 (* (- (/ 3.0 2.0)) B)))
 (let ((?x2894 (* (/ 3.0 2.0) A_1)))
 (let ((?x2888 (* (- (/ 3.0 2.0)) L_1)))
 (let (($x37465 (<= (+ (* (- (/ 1.0 2.0)) L_1) (* (/ 1.0 2.0) A_1) (* (- (/ 1.0 2.0)) B) ?x2920) (- 5.0))))
 (let (($x128 (>= S_1 S_0)))
 (let (($x131 (>= S_2 S_1)))
 (let (($x134 (>= S_3 S_2)))
 (let (($x137 (>= S_4 S_3)))
 (let (($x140 (>= S_5 S_4)))
 (let (($x142 (>= A_1 A_0)))
 (let (($x144 (>= A_3 A_2)))
 (let (($x145 (>= A_4 A_3)))
 (let (($x146 (>= A_5 A_4)))
 (and (<= (+ A_1 (* (- 1.0) L_1)) S_5) $x146 $x145 $x144 $x142 $x140 $x137 $x134 $x131 $x128 (or $x56 (not (<= 0.0 (+ (* (- 1.0) L_1) L_0)))) (<= (+ (* (- 1.0) L_1) A_1 ?x417 ?x277) 0.0) (or $x56 (<= (+ L_1 (* (- 1.0) A_1) S_1 B) 0.0)) (<= (+ ?x2888 ?x2894 ?x2887 ?x2920 ?x411) 0.0) $x37465 (<= (+ ?x2888 ?x2894 ?x2887 ?x1339 ?x2920 L_0) 0.0) (<= (+ ?x2259 ?x2937 ?x2216 ?x431 ?x1312) 0.0) (<= (+ (* (- 1.0) L_1) A_1 ?x424 ?x277) (- 5.0)) (<= (+ ?x2259 ?x2937 ?x1339 ?x424 ?x2216 L_0) 0.0) (or $x56 (<= (+ L_1 (* (- 1.0) A_1) S_0 B) (- 5.0))) (<= (+ (* (- (/ 1.0 3.0)) L_1) (* (/ 1.0 3.0) A_1) ?x1284 ?x1264) (- 5.0)) $x1315 $x32672 (or $x56 (<= (+ ?x1267 ?x1268 ?x1270 S_3 ?x1271) 0.0)) (or $x56 (<= (+ ?x1282 ?x1283 ?x1284 S_2 (* (/ 2.0 3.0) B)) 0.0)) (or $x36027 (<= (+ ?x417 S_0) (- 5.0))) $x3149 (<= (+ (* (- 1.0) L_1) A_1 S_5 ?x277 ?x1921) 0.0) $x3223 (not (<= 0.0 (+ S_5 ?x277 ?x424))) $x3256 (<= (+ ?x1297 ?x1299 ?x1284 ?x1339 ?x1300 L_0) 0.0) (or $x56 $x39570) (or $x56 (not (<= 0.0 (+ ?x1282 ?x1283 ?x1263 ?x1264)))) (or $x56 $x3617) (or $x56 (not (<= 0.0 (+ ?x2926 ?x2923 S_5 (* (- (/ 1.0 2.0)) B) ?x2920)))) $x2981 (<= (+ ?x1297 ?x1299 ?x1284 ?x411 ?x1300) 0.0) (or $x56 (<= (+ ?x2926 ?x2923 (* (/ 1.0 2.0) B) ?x2920 S_2) 0.0)) (or $x56 $x3576) (or $x56 (<= ?x3601 0.0)) (or $x17587 (not (<= 0.0 (+ L_1 (* (- 1.0) A_1) S_1)))) (<= (+ ?x1339 ?x2920 (* (/ 3.0 2.0) S_1) L_0) 0.0) (or $x36027 (not (<= 0.0 (+ S_5 ?x277 (* (- 2.0) S_2) S_0)))) $x4141 (<= (+ (* (- 2.0) S_5) (* 3.0 S_3) ?x417) 0.0) $x8606 (<= (+ ?x1339 ?x1921 (* 3.0 S_2) L_0) 0.0) (<= (+ ?x2926 ?x2923 ?x2920 S_2) 0.0) (<= (+ ?x1978 (* 4.0 S_2) ?x1312) 0.0) (or (<= (+ S_3 (* (- 3.0) S_2) ?x3297) 0.0) $x36027) (<= (+ ?x1921 (* 3.0 S_2) ?x411) 0.0) (<= (+ (* (- 1.0) S_5) (* 2.0 S_2) ?x411) 0.0) (or (<= (+ (* (- (/ 1.0 3.0)) S_4) (* (/ 1.0 3.0) S_0)) (- 5.0)) $x40470) $x53729 $x18409 (<= (+ ?x431 (* 2.0 S_1) ?x1312) 0.0) (not (<= 0.0 (+ ?x4978 ?x2284 ?x1339 ?x1921 L_0))) (not (<= 0.0 (+ ?x2926 ?x2923 S_5 ?x277 ?x2920))) $x41148 (or (<= (+ (* (/ 1.0 5.0) S_5) ?x417 (* (/ 4.0 5.0) S_0)) 0.0) $x36027) (<= (+ (* (- 2.0) S_3) (* 3.0 S_1) ?x1312) 0.0) $x54411 $x40850 (not (<= (- 5.0) (+ S_5 ?x277 ?x431))) $x41595 (or $x10188 (not $x40639)) $x53051 (or (<= (+ (* (/ 1.0 4.0) S_4) ?x417 (* (/ 3.0 4.0) S_0)) 0.0) $x36027) (not (<= 0.0 (+ ?x10774 ?x2216 ?x431 ?x417))) (not (<= 0.0 (+ ?x4978 ?x2284 ?x1921 ?x411))) (not (<= 0.0 (+ ?x10857 ?x2294 ?x1978 ?x1312))) $x39 (not (>= (+ L_1 S_5 (* (- 1.0) A_2)) 0.0)) (<= (+ ?x1339 S_0 L_0) 0.0) (<= (+ ?x424 S_1) (- 5.0)) (<= (+ S_4 (* (- 3.0) S_3) (* 2.0 S_1)) 0.0) (<= (+ S_5 (* (- 4.0) S_3) (* 3.0 S_1)) 0.0) (<= (+ (* (/ 1.0 2.0) S_5) ?x431 (* (/ 1.0 2.0) S_1)) 0.0) (<= (+ ?x431 S_2) (- 5.0)) (<= (+ S_5 ?x1978 (* 2.0 S_2)) 0.0) (<= (+ (* (- (/ 1.0 2.0)) S_5) (* (/ 1.0 2.0) S_2)) (- 5.0)) (<= (+ ?x1284 (* (/ 1.0 3.0) S_1)) (- 5.0)) (<= (+ ?x2920 (* (/ 1.0 2.0) S_1)) (- 5.0)) (<= (+ (* (- 1.0) S_5) S_3) (- 5.0)) (<= (+ L_1 (* (- 1.0) A_1) S_1) 0.0) (<= (+ (* (- (/ 3.0 2.0)) S_5) (* (/ 5.0 2.0) S_2) ?x1312) 0.0) $x21547 (not (>= (+ L_1 (* (- 1.0) A_1) S_5 ?x2887) 0.0)) (not (>= (+ S_5 (* (- (/ 5.0 2.0)) B) ?x1312) 0.0)) $x20125 $x10582 $x555 (<= (+ (* (- 4.0) S_5) (* 5.0 S_3) ?x1312) 0.0) (<= (+ (* (- 3.0) S_5) (* 4.0 S_3) ?x411) 0.0) (<= (+ ?x1270 (* (/ 5.0 3.0) S_1) ?x1312) 0.0) $x21576 (not (>= (+ S_5 ?x2887 ?x417) 0.0)) (not (>= (+ S_5 ?x2216 ?x1339 L_0) 0.0)) (not (>= (+ S_5 ?x2216 ?x411) 0.0))))))))))))))))))))))))))))))))))))))))))))))))))))))))))))))))))))))))))))))))))))
(check-sat)
