qe/outputs/qe/cbrdelay_obs_newl/T=6,eliminate=[I_0,I_1,I_2,I_3,I_4,I_5,L_2,L_3,L_4,L_5,C,lhs=B].smt2.z3
[And(A_1 + -1*L_1 <= S_5,
     A_5 >= A_4,
     A_4 >= A_3,
     A_3 >= A_2,
     A_1 >= A_0,
     S_5 >= S_4,
     S_4 >= S_3,
     S_3 >= S_2,
     S_2 >= S_1,
     S_1 >= S_0,
     Or(L_1 == L_0, Not(0 <= -1*L_1 + L_0)),
     -1*L_1 + A_1 + -1*S_2 + -1*B <= 0,
     Or(L_1 == L_0, L_1 + -1*A_1 + S_1 + B <= 0),
     -(3/2)*L_1 + (3/2)*A_1 + -(3/2)*B + -(1/2)*S_4 + -1*S_1 <=
     0,
     -(1/2)*L_1 + (1/2)*A_1 + -(1/2)*B + -(1/2)*S_4 <= -5,
     -(3/2)*L_1 +
     (3/2)*A_1 +
     -(3/2)*B +
     -1*A_0 +
     -(1/2)*S_4 +
     L_0 <=
     0,
     -2*L_1 + 2*A_1 + -2*B + -1*S_4 + -1*S_0 <= 0,
     -1*L_1 + A_1 + -1*S_3 + -1*B <= -5,
     -2*L_1 + 2*A_1 + -1*A_0 + -1*S_3 + -2*B + L_0 <= 0,
     Or(L_1 == L_0, L_1 + -1*A_1 + S_0 + B <= -5),
     -(1/3)*L_1 + (1/3)*A_1 + -(1/3)*S_5 + -(1/3)*B <= -5,
     -(5/3)*L_1 + (5/3)*A_1 + -(2/3)*S_5 + -1*S_0 + -(5/3)*B <=
     0,
     Or(L_1 == L_0, 3*L_1 + -3*A_1 + S_3 + 2*S_0 + 3*B <= 0),
     Or(L_1 == L_0,
        (1/3)*L_1 + -(1/3)*A_1 + -(2/3)*S_5 + S_3 + (1/3)*B <=
        0),
     Or(L_1 == L_0,
        (2/3)*L_1 + -(2/3)*A_1 + -(1/3)*S_5 + S_2 + (2/3)*B <=
        0),
     Or(0 <= L_1 + -1*A_1 + S_2, -1*S_2 + S_0 <= -5),
     -3*L_1 + 3*A_1 + -2*S_3 + -1*S_0 + -3*B <= 0,
     -1*L_1 + A_1 + S_5 + -1*B + -2*S_4 <= 0,
     -2*L_1 + 2*A_1 + -1*S_3 + -1*S_1 + -2*B <= 0,
     Not(0 <= S_5 + -1*B + -1*S_3),
     -3*L_1 + 3*A_1 + S_5 + -4*S_3 + -3*B <= 0,
     -(4/3)*L_1 +
     (4/3)*A_1 +
     -(1/3)*S_5 +
     -1*A_0 +
     -(4/3)*B +
     L_0 <=
     0,
     Or(L_1 == L_0,
        Not(0 <= 2*L_1 + -2*A_1 + S_5 + B + S_0)),
     Or(L_1 == L_0,
        Not(0 <=
            (2/3)*L_1 + -(2/3)*A_1 + (2/3)*S_5 + -(1/3)*B)),
     Or(L_1 == L_0, 4*L_1 + -4*A_1 + S_4 + 3*S_0 + 4*B <= 0),
     Or(L_1 == L_0,
        Not(0 <=
            (1/2)*L_1 +
            -(1/2)*A_1 +
            S_5 +
            -(1/2)*B +
            -(1/2)*S_4)),
     -2*L_1 + 2*A_1 + S_4 + -3*S_3 + -2*B <= 0,
     -(4/3)*L_1 + (4/3)*A_1 + -(1/3)*S_5 + -1*S_1 + -(4/3)*B <=
     0,
     Or(L_1 == L_0,
        (1/2)*L_1 + -(1/2)*A_1 + (1/2)*B + -(1/2)*S_4 + S_2 <=
        0),
     Or(L_1 == L_0, 2*L_1 + -2*A_1 + S_2 + S_0 + 2*B <= 0),
     Or(L_1 == L_0, 5*L_1 + -5*A_1 + S_5 + 4*S_0 + 5*B <= 0),
     Or(-(3/2)*L_1 + (3/2)*A_1 + -1*A_0 + -(1/2)*S_4 + L_0 <=
        0,
        Not(0 <= L_1 + -1*A_1 + S_1)),
     -1*A_0 + -(1/2)*S_4 + (3/2)*S_1 + L_0 <= 0,
     Or(0 <= L_1 + -1*A_1 + S_2,
        Not(0 <= S_5 + -1*B + -2*S_2 + S_0)),
     -1*A_0 + -1*S_3 + 2*S_1 + L_0 <= 0,
     -2*S_5 + 3*S_3 + -1*S_2 <= 0,
     -3*S_5 + -1*A_0 + 4*S_3 + L_0 <= 0,
     -1*A_0 + -2*S_4 + 3*S_2 + L_0 <= 0,
     (1/2)*L_1 + -(1/2)*A_1 + -(1/2)*S_4 + S_2 <= 0,
     -3*S_4 + 4*S_2 + -1*S_0 <= 0,
     Or(S_3 + -3*S_2 + 2*S_0 <= 0, 0 <= L_1 + -1*A_1 + S_2),
     -2*S_4 + 3*S_2 + -1*S_1 <= 0,
     -1*S_5 + 2*S_2 + -1*S_1 <= 0,
     Or(-(1/3)*S_4 + (1/3)*S_0 <= -5,
        0 <= L_1 + -1*A_1 + (1/3)*S_4 + (2/3)*S_0),
     Or(Not(0 <= L_1 + -1*A_1 + (1/3)*S_4 + (2/3)*S_0),
        -(1/2)*L_1 + (1/2)*A_1 + -(1/2)*S_4 <= -5),
     Not(B <= 10),
     -1*S_4 + 2*S_1 + -1*S_0 <= 0,
     Not(0 <= 3*S_5 + -3*B + -1*A_0 + -2*S_4 + L_0),
     Not(0 <=
         (1/2)*L_1 + -(1/2)*A_1 + S_5 + -1*B + -(1/2)*S_4),
     Or(-(1/2)*S_3 + (1/2)*S_0 <= -5,
        -1*L_1 + A_1 + -1*S_3 <= -5),
     Or((1/5)*S_5 + -1*S_2 + (4/5)*S_0 <= 0,
        0 <= L_1 + -1*A_1 + S_2),
     -2*S_3 + 3*S_1 + -1*S_0 <= 0,
     Or((3/5)*S_5 + -1*S_4 + (2/5)*S_0 <= 0,
        -1*L_1 + A_1 + S_5 + -2*S_4 <= 0),
     Or(-(1/4)*S_5 + (1/4)*S_0 <= -5,
        -(1/3)*L_1 + (1/3)*A_1 + -(1/3)*S_5 <= -5),
     Not(-5 <= S_5 + -1*B + -1*S_4),
     Or((1/2)*S_4 + -1*S_3 + (1/2)*S_0 <= 0,
        0 <= L_1 + -1*A_1 + (1/4)*S_4 + (3/4)*S_0),
     Or(-2*L_1 + 2*A_1 + S_4 + -3*S_3 <= 0,
        Not(0 <= L_1 + -1*A_1 + (1/4)*S_4 + (3/4)*S_0)),
     Or((2/5)*S_5 + -1*S_3 + (3/5)*S_0 <= 0,
        -3*L_1 + 3*A_1 + S_5 + -4*S_3 <= 0),
     Or((1/4)*S_4 + -1*S_2 + (3/4)*S_0 <= 0,
        0 <= L_1 + -1*A_1 + S_2),
     Not(0 <= 2*S_5 + -2*B + -1*S_4 + -1*S_2),
     Not(0 <= 3*S_5 + -3*B + -2*S_4 + -1*S_1),
     Not(0 <= 4*S_5 + -4*B + -3*S_4 + -1*S_0),
     L_0 >= 0,
     Not(L_1 + S_5 + -1*A_2 >= 0),
     -1*A_0 + S_0 + L_0 <= 0,
     -1*S_3 + S_1 <= -5,
     S_4 + -3*S_3 + 2*S_1 <= 0,
     S_5 + -4*S_3 + 3*S_1 <= 0,
     (1/2)*S_5 + -1*S_4 + (1/2)*S_1 <= 0,
     -1*S_4 + S_2 <= -5,
     S_5 + -3*S_4 + 2*S_2 <= 0,
     -(1/2)*S_5 + (1/2)*S_2 <= -5,
     -(1/3)*S_5 + (1/3)*S_1 <= -5,
     -(1/2)*S_4 + (1/2)*S_1 <= -5,
     -1*S_5 + S_3 <= -5,
     L_1 + -1*A_1 + S_1 <= 0,
     -(3/2)*S_5 + (5/2)*S_2 + -1*S_0 <= 0,
     (2/3)*L_1 + -(2/3)*A_1 + -(1/3)*S_5 + S_2 <= 0,
     Not(L_1 + -1*A_1 + S_5 + -(3/2)*B >= 0),
     Not(S_5 + -(5/2)*B + -1*S_0 >= 0),
     -(1/3)*S_5 + -1*A_0 + (4/3)*S_1 + L_0 <= 0,
     -1*S_5 + -1*A_0 + 2*S_2 + L_0 <= 0,
     Not(3*S_5 + -2*B + -3*S_4 >= 0),
     -4*S_5 + 5*S_3 + -1*S_0 <= 0,
     -3*S_5 + 4*S_3 + -1*S_1 <= 0,
     -(2/3)*S_5 + (5/3)*S_1 + -1*S_0 <= 0,
     (1/3)*L_1 + -(1/3)*A_1 + -(2/3)*S_5 + S_3 <= 0,
     Not(S_5 + -(3/2)*B + -1*S_2 >= 0),
     Not(S_5 + -2*B + -1*A_0 + L_0 >= 0),
     Not(S_5 + -2*B + -1*S_1 >= 0))]